p cnf 7230 16
5116 -5436 0
-4590 -5124 -5441 0
4590 -5442 0
5116 -5440 0
-2830 -5436 -5439 0
5441 5442 0
5437 5438 0
5122 -5438 0
-5122 -5437 0
5435 5436 0
-5116 -5435 0
5124 -5442 0
5439 5440 0
2830 -5440 0
5126 -5444 0
4592 -5444 0
